(set-info :smt-lib-version 2.6)
(set-logic UF)
(set-info :source |Benchmarks from the paper: "Extending Sledgehammer with SMT Solvers" by Jasmin Blanchette, Sascha Bohme, and Lawrence C. Paulson, CADE 2011.  Translated to SMT2 by Andrew Reynolds and Morgan Deters.|)
(set-info :category "industrial")
(set-info :status sat)
(declare-sort S1 0)
(declare-sort S2 0)
(declare-sort S3 0)
(declare-sort S4 0)
(declare-sort S5 0)
(declare-sort S6 0)
(declare-sort S7 0)
(declare-sort S8 0)
(declare-sort S9 0)
(declare-sort S10 0)
(declare-fun f1 () S1)
(declare-fun f2 () S1)
(declare-fun f3 (S2 S3) S3)
(declare-fun f4 (S4 S3) S2)
(declare-fun f5 () S4)
(declare-fun f6 (S5 S6) S3)
(declare-fun f7 (S7 S3) S5)
(declare-fun f8 () S7)
(declare-fun f9 () S4)
(declare-fun f10 () S3)
(declare-fun f11 () S3)
(declare-fun f12 () S5)
(declare-fun f13 () S6)
(declare-fun f14 () S3)
(declare-fun f15 () S3)
(declare-fun f16 () S3)
(declare-fun f17 (S8 S3) S6)
(declare-fun f18 () S8)
(declare-fun f19 () S2)
(declare-fun f20 () S2)
(declare-fun f21 () S3)
(declare-fun f22 () S4)
(declare-fun f23 () S3)
(declare-fun f24 (S3 S3) S1)
(declare-fun f25 () S2)
(declare-fun f26 (S9 S6) S6)
(declare-fun f27 (S10 S6) S9)
(declare-fun f28 () S10)
(declare-fun f29 () S10)
(declare-fun f30 () S10)
(declare-fun f31 () S3)
(declare-fun f32 () S3)
(declare-fun f33 () S6)
(assert (not (= f1 f2)))
(assert (let ((?v_4 (f4 f9 f10)) (?v_0 (f3 (f4 f5 f11) (f6 f12 f13)))) (let ((?v_1 (f4 f9 (f3 (f4 f5 (f3 ?v_4 ?v_0)) f14))) (?v_6 (f4 f9 f15))) (let ((?v_2 (f4 f9 (f3 (f4 f5 (f3 ?v_6 ?v_0)) f16))) (?v_3 (f17 f18 (f3 f19 (f3 f20 f21)))) (?v_5 (f4 f9 ?v_0))) (not (= (f3 (f4 f5 (f6 (f7 f8 (f3 (f4 f5 (f3 ?v_1 f14)) (f3 ?v_2 f16))) ?v_3)) (f6 (f7 f8 (f3 (f4 f22 (f3 ?v_1 f16)) (f3 ?v_2 f14))) ?v_3)) (f3 (f4 f5 (f6 (f7 f8 (f3 (f4 f5 (f3 (f4 f5 (f3 ?v_5 (f3 ?v_4 f14))) (f3 ?v_5 (f3 ?v_6 f16)))) (f3 (f4 f5 (f6 (f7 f8 f14) ?v_3)) (f6 (f7 f8 f16) ?v_3)))) ?v_3)) (f6 (f7 f8 (f3 (f4 f22 (f3 ?v_5 (f3 ?v_4 f16))) (f3 ?v_5 (f3 ?v_6 f14)))) ?v_3))))))))
(assert (let ((?v_0 (f17 f18 (f3 f19 (f3 f20 f21))))) (= (f3 (f4 f5 (f6 (f7 f8 f14) ?v_0)) (f6 (f7 f8 f16) ?v_0)) (f3 (f4 f9 (f3 (f4 f5 f11) (f6 f12 f13))) f23))))
(assert (=> (forall ((?v0 S3)) (let ((?v_0 (f17 f18 (f3 f19 (f3 f20 f21))))) (=> (= (f3 (f4 f5 (f6 (f7 f8 f14) ?v_0)) (f6 (f7 f8 f16) ?v_0)) (f3 (f4 f9 (f3 (f4 f5 f11) (f6 f12 f13))) ?v0)) false))) false))
(assert (let ((?v_0 (f17 f18 (f3 f19 (f3 f20 f21))))) (= (f24 (f3 (f4 f5 f11) (f6 f12 f13)) (f3 (f4 f5 (f6 (f7 f8 f14) ?v_0)) (f6 (f7 f8 f16) ?v_0))) f1)))
(assert (forall ((?v0 S3) (?v1 S3)) (let ((?v_1 (f3 f19 (f3 f20 f21)))) (let ((?v_0 (f17 f18 ?v_1))) (= (f6 (f7 f8 (f3 (f4 f22 ?v0) ?v1)) ?v_0) (f3 (f4 f22 (f3 (f4 f5 (f6 (f7 f8 ?v0) ?v_0)) (f6 (f7 f8 ?v1) ?v_0))) (f3 (f4 f9 (f3 (f4 f9 (f3 f25 ?v_1)) ?v0)) ?v1)))))))
(assert (forall ((?v0 S3) (?v1 S3)) (let ((?v_0 (f17 f18 (f3 f19 (f3 f20 f21))))) (= (f3 (f4 f9 (f3 (f4 f5 ?v0) ?v1)) (f3 (f4 f22 ?v0) ?v1)) (f3 (f4 f22 (f6 (f7 f8 ?v0) ?v_0)) (f6 (f7 f8 ?v1) ?v_0))))))
(assert (forall ((?v0 S6) (?v1 S6)) (let ((?v_0 (f17 f18 (f3 f19 (f3 f20 f21))))) (= (f26 (f27 f28 (f26 (f27 f29 ?v0) ?v1)) ?v_0) (f26 (f27 f29 (f26 (f27 f29 (f26 (f27 f28 ?v0) ?v_0)) (f26 (f27 f28 ?v1) ?v_0))) (f26 (f27 f30 (f26 (f27 f30 ?v_0) ?v0)) ?v1))))))
(assert (forall ((?v0 S3) (?v1 S3)) (let ((?v_1 (f3 f19 (f3 f20 f21)))) (let ((?v_0 (f17 f18 ?v_1))) (= (f6 (f7 f8 (f3 (f4 f5 ?v0) ?v1)) ?v_0) (f3 (f4 f5 (f3 (f4 f5 (f6 (f7 f8 ?v0) ?v_0)) (f6 (f7 f8 ?v1) ?v_0))) (f3 (f4 f9 (f3 (f4 f9 (f3 f25 ?v_1)) ?v0)) ?v1)))))))
(assert (forall ((?v0 S3)) (let ((?v_0 (f17 f18 ?v0))) (= (f26 (f27 f28 ?v_0) (f17 f18 (f3 f19 (f3 f20 f21)))) (f26 (f27 f30 ?v_0) ?v_0)))))
(assert (forall ((?v0 S3)) (let ((?v_0 (f3 f25 ?v0))) (= (f6 (f7 f8 ?v_0) (f17 f18 (f3 f19 (f3 f20 f21)))) (f3 (f4 f9 ?v_0) ?v_0)))))
(assert (forall ((?v0 S3)) (let ((?v_1 (f3 f20 f21)) (?v_0 (f7 f8 ?v0))) (= (f3 (f4 f9 ?v0) (f6 ?v_0 (f17 f18 (f3 f19 ?v_1)))) (f6 ?v_0 (f17 f18 (f3 f20 ?v_1)))))))
(assert (let ((?v_3 (f3 (f4 f5 f11) (f6 f12 f13)))) (let ((?v_4 (f4 f9 (f3 (f4 f5 (f3 (f4 f9 f10) ?v_3)) f14))) (?v_5 (f4 f9 (f3 (f4 f5 (f3 (f4 f9 f15) ?v_3)) f16))) (?v_2 (f17 f18 (f3 f19 (f3 f20 f21)))) (?v_0 (f4 f9 f31)) (?v_1 (f4 f9 f32))) (= (f3 (f4 f5 (f6 (f7 f8 (f3 (f4 f5 (f3 ?v_0 f14)) (f3 ?v_1 f16))) ?v_2)) (f6 (f7 f8 (f3 (f4 f22 (f3 ?v_0 f16)) (f3 ?v_1 f14))) ?v_2)) (f3 (f4 f5 (f6 (f7 f8 (f3 (f4 f5 (f3 ?v_4 f14)) (f3 ?v_5 f16))) ?v_2)) (f6 (f7 f8 (f3 (f4 f22 (f3 ?v_4 f16)) (f3 ?v_5 f14))) ?v_2))))))
(assert (= (f26 (f27 f28 f33) (f17 f18 (f3 f19 (f3 f20 f21)))) f33))
(assert (= (f6 (f7 f8 f11) (f17 f18 (f3 f19 (f3 f20 f21)))) f11))
(assert (forall ((?v0 S6)) (= (f26 (f27 f30 ?v0) ?v0) (f26 (f27 f28 ?v0) (f17 f18 (f3 f19 (f3 f20 f21)))))))
(assert (forall ((?v0 S3)) (= (f3 (f4 f9 ?v0) ?v0) (f6 (f7 f8 ?v0) (f17 f18 (f3 f19 (f3 f20 f21)))))))
(assert (forall ((?v0 S6)) (= (f26 (f27 f28 ?v0) (f17 f18 (f3 f19 (f3 f20 f21)))) (f26 (f27 f30 ?v0) ?v0))))
(assert (forall ((?v0 S3)) (= (f6 (f7 f8 ?v0) (f17 f18 (f3 f19 (f3 f20 f21)))) (f3 (f4 f9 ?v0) ?v0))))
(assert (forall ((?v0 S6) (?v1 S6)) (let ((?v_0 (f27 f28 ?v0))) (let ((?v_1 (f26 ?v_0 ?v1))) (= (f26 ?v_0 (f26 (f27 f30 (f17 f18 (f3 f19 (f3 f20 f21)))) ?v1)) (f26 (f27 f30 ?v_1) ?v_1))))))
(assert (forall ((?v0 S3) (?v1 S6)) (let ((?v_0 (f7 f8 ?v0))) (let ((?v_1 (f6 ?v_0 ?v1))) (= (f6 ?v_0 (f26 (f27 f30 (f17 f18 (f3 f19 (f3 f20 f21)))) ?v1)) (f3 (f4 f9 ?v_1) ?v_1))))))
(assert (forall ((?v0 S3)) (= (f3 (f4 f5 f11) (f3 f25 ?v0)) (f3 f25 (f3 (f4 f5 (f3 f20 f21)) ?v0)))))
(assert (let ((?v_0 (f17 f18 (f3 f19 (f3 f20 f21)))) (?v_1 (f4 f9 f31)) (?v_2 (f4 f9 f32))) (= (f3 (f4 f9 (f3 (f4 f5 (f6 (f7 f8 f31) ?v_0)) (f6 (f7 f8 f32) ?v_0))) (f3 (f4 f5 (f6 (f7 f8 f14) ?v_0)) (f6 (f7 f8 f16) ?v_0))) (f3 (f4 f5 (f6 (f7 f8 (f3 (f4 f5 (f3 ?v_1 f14)) (f3 ?v_2 f16))) ?v_0)) (f6 (f7 f8 (f3 (f4 f22 (f3 ?v_1 f16)) (f3 ?v_2 f14))) ?v_0)))))
(assert (forall ((?v0 S6) (?v1 S6) (?v2 S6)) (let ((?v_0 (f27 f28 ?v0))) (= (f26 (f27 f28 (f26 ?v_0 ?v1)) ?v2) (f26 ?v_0 (f26 (f27 f30 ?v1) ?v2))))))
(assert (forall ((?v0 S3) (?v1 S6) (?v2 S6)) (let ((?v_0 (f7 f8 ?v0))) (= (f6 (f7 f8 (f6 ?v_0 ?v1)) ?v2) (f6 ?v_0 (f26 (f27 f30 ?v1) ?v2))))))
(assert (forall ((?v0 S3) (?v1 S3)) (= (f3 (f4 f9 (f3 f25 ?v0)) (f3 f25 ?v1)) (f3 f25 (f3 (f4 f9 ?v0) ?v1)))))
(assert (forall ((?v0 S3) (?v1 S3) (?v2 S3)) (=> (= (f24 ?v0 (f3 (f4 f22 ?v1) ?v2)) f1) (=> (= (f24 ?v0 ?v2) f1) (= (f24 ?v0 ?v1) f1)))))
(assert (forall ((?v0 S3) (?v1 S3)) (= (f3 (f4 f5 (f3 f25 ?v0)) (f3 f25 ?v1)) (f3 f25 (f3 (f4 f5 ?v0) ?v1)))))
(assert (forall ((?v0 S6)) (= (f26 (f27 f28 ?v0) f33) ?v0)))
(assert (forall ((?v0 S3)) (= (f6 (f7 f8 ?v0) f33) ?v0)))
(assert (forall ((?v0 S3) (?v1 S6) (?v2 S6)) (let ((?v_0 (f7 f8 ?v0))) (= (f6 (f7 f8 (f6 ?v_0 ?v1)) ?v2) (f6 ?v_0 (f26 (f27 f30 ?v1) ?v2))))))
(assert (forall ((?v0 S3) (?v1 S3) (?v2 S3) (?v3 S3) (?v4 S3)) (let ((?v_0 (f4 f5 ?v2))) (=> (= (f24 ?v0 ?v1) f1) (= (= (f24 ?v0 (f3 ?v_0 ?v3)) f1) (= (f24 ?v0 (f3 (f4 f5 (f3 ?v_0 (f3 (f4 f9 ?v4) ?v1))) ?v3)) f1))))))
(assert (forall ((?v0 S3) (?v1 S3) (?v2 S3)) (= (= (f24 ?v0 (f3 (f4 f5 ?v1) (f3 (f4 f9 ?v0) ?v2))) f1) (= (f24 ?v0 ?v1) f1))))
(assert (forall ((?v0 S6) (?v1 S6) (?v2 S6)) (let ((?v_0 (f27 f28 ?v0))) (= (f26 (f27 f30 (f26 ?v_0 ?v1)) (f26 ?v_0 ?v2)) (f26 ?v_0 (f26 (f27 f29 ?v1) ?v2))))))
(assert (forall ((?v0 S3) (?v1 S6) (?v2 S6)) (let ((?v_0 (f7 f8 ?v0))) (= (f3 (f4 f9 (f6 ?v_0 ?v1)) (f6 ?v_0 ?v2)) (f6 ?v_0 (f26 (f27 f29 ?v1) ?v2))))))
(assert (forall ((?v0 S6) (?v1 S6)) (= (f6 (f7 f8 (f6 f12 ?v0)) ?v1) (f6 f12 (f26 (f27 f28 ?v0) ?v1)))))
(assert (forall ((?v0 S6) (?v1 S6)) (= (f6 f12 (f26 (f27 f28 ?v0) ?v1)) (f6 (f7 f8 (f6 f12 ?v0)) ?v1))))
(assert (forall ((?v0 S6) (?v1 S6) (?v2 S3)) (= (f3 (f4 f5 (f6 f12 ?v0)) (f3 (f4 f5 (f6 f12 ?v1)) ?v2)) (f3 (f4 f5 (f6 f12 (f26 (f27 f29 ?v0) ?v1))) ?v2))))
(assert (forall ((?v0 S6) (?v1 S6)) (= (f3 (f4 f5 (f6 f12 ?v0)) (f6 f12 ?v1)) (f6 f12 (f26 (f27 f29 ?v0) ?v1)))))
(assert (forall ((?v0 S6) (?v1 S6)) (= (f3 (f4 f9 (f6 f12 ?v0)) (f6 f12 ?v1)) (f6 f12 (f26 (f27 f30 ?v0) ?v1)))))
(assert (forall ((?v0 S6) (?v1 S6)) (= (f6 f12 (f26 (f27 f30 ?v0) ?v1)) (f3 (f4 f9 (f6 f12 ?v0)) (f6 f12 ?v1)))))
(assert (forall ((?v0 S3) (?v1 S6) (?v2 S6)) (let ((?v_0 (f7 f8 ?v0))) (= (f6 ?v_0 (f26 (f27 f29 ?v1) ?v2)) (f3 (f4 f9 (f6 ?v_0 ?v1)) (f6 ?v_0 ?v2))))))
(assert (= (f6 f12 f33) f11))
(check-sat)
(exit)
